data/lp_files/pEFS/43_9.lp
\ Model foo
\ LP format - for model browsing. Use MPS format to capture full model detail.
Minimize
  z
Subject To
 allocateEach[1]: x[1,1] + x[2,1] + x[3,1] = 1
 allocateEach[2]: x[1,2] + x[2,2] + x[3,2] = 1
 allocateEach[3]: x[1,3] + x[2,3] + x[3,3] = 1
 allocateAllCash: cashProportion[1] + cashProportion[2] + cashProportion[3]
   = 1
 findWorstP[1,2]: z + 0.2933927942729727 cashProportion[1]
   - 0.2933927942729727 cashProportion[2] + 0.2792512615890153 x[1,1]
   + 0.2576575519305245 x[1,2] + 0.1696983922074874 x[1,3]
   - 0.2792512615890153 x[2,1] - 0.2576575519305245 x[2,2]
   - 0.1696983922074874 x[2,3] >= 0
 findWorstP[1,3]: z + 0.2933927942729727 cashProportion[1]
   - 0.2933927942729727 cashProportion[3] + 0.2792512615890153 x[1,1]
   + 0.2576575519305245 x[1,2] + 0.1696983922074874 x[1,3]
   - 0.2792512615890153 x[3,1] - 0.2576575519305245 x[3,2]
   - 0.1696983922074874 x[3,3] >= 0
 findWorstP[2,1]: z - 0.3673769287288758 cashProportion[1]
   + 0.3673769287288758 cashProportion[2] - 0.00940484937545922 x[1,1]
   - 0.3180014695077149 x[1,2] - 0.30521675238795 x[1,3]
   + 0.00940484937545922 x[2,1] + 0.3180014695077149 x[2,2]
   + 0.30521675238795 x[2,3] >= 0
 findWorstP[2,3]: z + 0.3673769287288758 cashProportion[2]
   - 0.3673769287288758 cashProportion[3] + 0.00940484937545922 x[2,1]
   + 0.3180014695077149 x[2,2] + 0.30521675238795 x[2,3]
   - 0.00940484937545922 x[3,1] - 0.3180014695077149 x[3,2]
   - 0.30521675238795 x[3,3] >= 0
 findWorstP[3,1]: z - 0.4073319755600815 cashProportion[1]
   + 0.4073319755600815 cashProportion[3] - 0.1477393075356415 x[1,1]
   - 0.260244399185336 x[1,2] - 0.1846843177189409 x[1,3]
   + 0.1477393075356415 x[3,1] + 0.260244399185336 x[3,2]
   + 0.1846843177189409 x[3,3] >= 0
 findWorstP[3,2]: z - 0.4073319755600815 cashProportion[2]
   + 0.4073319755600815 cashProportion[3] - 0.1477393075356415 x[2,1]
   - 0.260244399185336 x[2,2] - 0.1846843177189409 x[2,3]
   + 0.1477393075356415 x[3,1] + 0.260244399185336 x[3,2]
   + 0.1846843177189409 x[3,3] >= 0
Bounds
 z <= 1
 -infinity <= cashProportion[1] <= 1
 -infinity <= cashProportion[2] <= 1
 -infinity <= cashProportion[3] <= 1
Binaries
 x[1,1] x[1,2] x[1,3] x[2,1] x[2,2] x[2,3] x[3,1] x[3,2] x[3,3]
End
